\ENCODING=ISO-8859-1
\Problem name: IloCplex

Minimize
 obj1: x((2,25)_(1,25))#0 + x((1,25)_(2,25))#1 + x((2,24)_(1,24))#2
       + x((1,24)_(2,24))#3 + x((2,23)_(1,23))#4 + x((1,23)_(2,23))#5
       + x((3,29)_(0,m1))#6 + x((3,28)_(0,m1))#7 + x((2,29)_(0,m1))#8
       + x((2,28)_(0,m1))#9 + 25 x((4,m1)_(1,25))#10 + 24 x((4,m1)_(1,24))#11
       + 23 x((4,m1)_(1,23))#12 + 22 x((4,m1)_(1,22))#13
Subject To
 Flow(1,22)#0:  - x((4,m1)_(1,22))#13  = 0
 Flow(2,25)#1:  x((2,25)_(1,25))#0 - x((1,25)_(2,25))#1  = 0
 Flow(1,25)#2:  - x((2,25)_(1,25))#0 + x((1,25)_(2,25))#1 - x((4,m1)_(1,25))#10
                 = 0
 Flow(2,24)#3:  x((2,24)_(1,24))#2 - x((1,24)_(2,24))#3  = 0
 Flow(1,24)#4:  - x((2,24)_(1,24))#2 + x((1,24)_(2,24))#3 - x((4,m1)_(1,24))#11
                 = 0
 Flow(2,23)#5:  x((2,23)_(1,23))#4 - x((1,23)_(2,23))#5  = 0
 Flow(1,23)#6:  - x((2,23)_(1,23))#4 + x((1,23)_(2,23))#5 - x((4,m1)_(1,23))#12
                 = 0
 Flow(3,29)#7:  x((3,29)_(0,m1))#6  = 0
 Flow(3,28)#8:  x((3,28)_(0,m1))#7  = 0
 Flow(2,29)#9:  x((2,29)_(0,m1))#8  = 0
 Flow(2,28)#10: x((2,28)_(0,m1))#9  = 0
 Flow(0,m1)#11: - x((3,29)_(0,m1))#6 - x((3,28)_(0,m1))#7 - x((2,29)_(0,m1))#8
                - x((2,28)_(0,m1))#9  = -1
 Flow(4,m1)#12: x((4,m1)_(1,25))#10 + x((4,m1)_(1,24))#11 + x((4,m1)_(1,23))#12
                + x((4,m1)_(1,22))#13  = 1
 Length#13:     303 x((2,25)_(1,25))#0 + 303 x((1,25)_(2,25))#1
                + 303 x((2,24)_(1,24))#2 + 303 x((1,24)_(2,24))#3
                + 303 x((2,23)_(1,23))#4 + 303 x((1,23)_(2,23))#5
                + 391 x((3,29)_(0,m1))#6 + 391 x((3,28)_(0,m1))#7
                + 301 x((2,29)_(0,m1))#8 + 301 x((2,28)_(0,m1))#9
                + 256 x((4,m1)_(1,25))#10 + 256 x((4,m1)_(1,24))#11
                + 256 x((4,m1)_(1,23))#12 + 256 x((4,m1)_(1,22))#13 <= 3000
Bounds
 0 <= x((2,25)_(1,25))#0 <= 1
 0 <= x((1,25)_(2,25))#1 <= 1
 0 <= x((2,24)_(1,24))#2 <= 1
 0 <= x((1,24)_(2,24))#3 <= 1
 0 <= x((2,23)_(1,23))#4 <= 1
 0 <= x((1,23)_(2,23))#5 <= 1
 0 <= x((3,29)_(0,m1))#6 <= 1
 0 <= x((3,28)_(0,m1))#7 <= 1
 0 <= x((2,29)_(0,m1))#8 <= 1
 0 <= x((2,28)_(0,m1))#9 <= 1
 0 <= x((4,m1)_(1,25))#10 <= 1
 0 <= x((4,m1)_(1,24))#11 <= 1
 0 <= x((4,m1)_(1,23))#12 <= 1
 0 <= x((4,m1)_(1,22))#13 <= 1
Binaries
 x((2,25)_(1,25))#0  x((1,25)_(2,25))#1  x((2,24)_(1,24))#2 
 x((1,24)_(2,24))#3  x((2,23)_(1,23))#4  x((1,23)_(2,23))#5 
 x((3,29)_(0,m1))#6  x((3,28)_(0,m1))#7  x((2,29)_(0,m1))#8 
 x((2,28)_(0,m1))#9  x((4,m1)_(1,25))#10  x((4,m1)_(1,24))#11 
 x((4,m1)_(1,23))#12  x((4,m1)_(1,22))#13 
End
